c CNF file corresponding to a (partial) station packing problem.
p cnf 1363 198
1 2 3 4 5 6 7 8 9 10 11 12 13 14 0
-1 -2 0
-1 -3 0
-1 -4 0
-1 -5 0
-1 -6 0
-1 -7 0
-1 -8 0
-1 -9 0
-1 -10 0
-1 -11 0
-1 -12 0
-1 -13 0
-1 -14 0
-2 -3 0
-2 -4 0
-2 -5 0
-2 -6 0
-2 -7 0
-2 -8 0
-2 -9 0
-2 -10 0
-2 -11 0
-2 -12 0
-2 -13 0
-2 -14 0
-3 -4 0
-3 -5 0
-3 -6 0
-3 -7 0
-3 -8 0
-3 -9 0
-3 -10 0
-3 -11 0
-3 -12 0
-3 -13 0
-3 -14 0
-4 -5 0
-4 -6 0
-4 -7 0
-4 -8 0
-4 -9 0
-4 -10 0
-4 -11 0
-4 -12 0
-4 -13 0
-4 -14 0
-5 -6 0
-5 -7 0
-5 -8 0
-5 -9 0
-5 -10 0
-5 -11 0
-5 -12 0
-5 -13 0
-5 -14 0
-6 -7 0
-6 -8 0
-6 -9 0
-6 -10 0
-6 -11 0
-6 -12 0
-6 -13 0
-6 -14 0
-7 -8 0
-7 -9 0
-7 -10 0
-7 -11 0
-7 -12 0
-7 -13 0
-7 -14 0
-8 -9 0
-8 -10 0
-8 -11 0
-8 -12 0
-8 -13 0
-8 -14 0
-9 -10 0
-9 -11 0
-9 -12 0
-9 -13 0
-9 -14 0
-10 -11 0
-10 -12 0
-10 -13 0
-10 -14 0
-11 -12 0
-11 -13 0
-11 -14 0
-12 -13 0
-12 -14 0
-13 -14 0
1349 1350 1351 1352 1353 1354 1355 1356 1357 1358 1359 1360 1361 1362 1363 0
-1349 -1350 0
-1349 -1351 0
-1349 -1352 0
-1349 -1353 0
-1349 -1354 0
-1349 -1355 0
-1349 -1356 0
-1349 -1357 0
-1349 -1358 0
-1349 -1359 0
-1349 -1360 0
-1349 -1361 0
-1349 -1362 0
-1349 -1363 0
-1350 -1351 0
-1350 -1352 0
-1350 -1353 0
-1350 -1354 0
-1350 -1355 0
-1350 -1356 0
-1350 -1357 0
-1350 -1358 0
-1350 -1359 0
-1350 -1360 0
-1350 -1361 0
-1350 -1362 0
-1350 -1363 0
-1351 -1352 0
-1351 -1353 0
-1351 -1354 0
-1351 -1355 0
-1351 -1356 0
-1351 -1357 0
-1351 -1358 0
-1351 -1359 0
-1351 -1360 0
-1351 -1361 0
-1351 -1362 0
-1351 -1363 0
-1352 -1353 0
-1352 -1354 0
-1352 -1355 0
-1352 -1356 0
-1352 -1357 0
-1352 -1358 0
-1352 -1359 0
-1352 -1360 0
-1352 -1361 0
-1352 -1362 0
-1352 -1363 0
-1353 -1354 0
-1353 -1355 0
-1353 -1356 0
-1353 -1357 0
-1353 -1358 0
-1353 -1359 0
-1353 -1360 0
-1353 -1361 0
-1353 -1362 0
-1353 -1363 0
-1354 -1355 0
-1354 -1356 0
-1354 -1357 0
-1354 -1358 0
-1354 -1359 0
-1354 -1360 0
-1354 -1361 0
-1354 -1362 0
-1354 -1363 0
-1355 -1356 0
-1355 -1357 0
-1355 -1358 0
-1355 -1359 0
-1355 -1360 0
-1355 -1361 0
-1355 -1362 0
-1355 -1363 0
-1356 -1357 0
-1356 -1358 0
-1356 -1359 0
-1356 -1360 0
-1356 -1361 0
-1356 -1362 0
-1356 -1363 0
-1357 -1358 0
-1357 -1359 0
-1357 -1360 0
-1357 -1361 0
-1357 -1362 0
-1357 -1363 0
-1358 -1359 0
-1358 -1360 0
-1358 -1361 0
-1358 -1362 0
-1358 -1363 0
-1359 -1360 0
-1359 -1361 0
-1359 -1362 0
-1359 -1363 0
-1360 -1361 0
-1360 -1362 0
-1360 -1363 0
-1361 -1362 0
-1361 -1363 0
-1362 -1363 0
